Version identifier: 12.10.0.0 | 2019-11-26 | 843d4de
CPXPARAM_WorkMem                                 28672
Tried aggregator 2 times.
Aggregator did 40 substitutions.
Reduced MIP has 184 rows, 240 columns, and 888 nonzeros.
Reduced MIP has 240 binaries, 0 generals, 0 SOSs, and 0 indicators.
Presolve time = 0,00 sec. (0,83 ticks)
Found incumbent of value 796,000000 after 0,00 sec. (1,45 ticks)
Probing time = 0,00 sec. (0,28 ticks)
Tried aggregator 1 time.
Detecting symmetries...
MIP Presolve eliminated 32 rows and 0 columns.
MIP Presolve added 64 rows and 0 columns.
Reduced MIP has 216 rows, 240 columns, and 920 nonzeros.
Reduced MIP has 240 binaries, 0 generals, 0 SOSs, and 0 indicators.
Presolve time = 0,00 sec. (1,11 ticks)
Probing time = 0,00 sec. (0,28 ticks)
Clique table members: 588.
MIP emphasis: balance optimality and feasibility.
MIP search method: dynamic search.
Parallel mode: deterministic, using up to 16 threads.
Root relaxation solution time = 0,00 sec. (0,77 ticks)

        Nodes                                         Cuts/
   Node  Left     Objective  IInf  Best Integer    Best Bound    ItCnt     Gap

*     0+    0                          796,0000        0,0000           100,00%
*     0+    0                          524,0000        0,0000           100,00%
*     0+    0                          497,0000        0,0000           100,00%
*     0+    0                          451,0000        0,0000           100,00%
      0     0      199,0000   145      451,0000      199,0000       95   55,88%
      0     0      199,0000   145      451,0000     Cuts: 136      166   55,88%
      0     0      199,0000   145      451,0000     Cuts: 154      245   55,88%
*     0+    0                          446,0000      199,0000            55,38%
*     0+    0                          445,0000      199,0000            55,28%
*     0+    0                          432,0000      199,0000            53,94%
*     0+    0                          401,0000      199,0000            50,37%
      0     2      218,4333    99      401,0000      214,3500      291   46,55%
Elapsed time = 0,07 sec. (33,14 ticks, tree = 0,02 MB, solutions = 8)
*    20+    3                          397,0000      218,4333            44,98%
*    83+    3                          385,0000      233,3667            39,39%
   3386  1399        cutoff            385,0000      340,7765   123727   11,49%

Clique cuts applied:  86
Cover cuts applied:  357
Mixed integer rounding cuts applied:  5

Root node processing (before b&c):
  Real time             =    0,07 sec. (33,04 ticks)
Parallel b&c, 16 threads:
  Real time             =    0,59 sec. (374,91 ticks)
  Sync time (average)   =    0,22 sec.
  Wait time (average)   =    0,00 sec.
                          ------------
Total (root+branch&cut) =    0,66 sec. (407,95 ticks)
